/*********************************************
 * OPL 22.1.1.0 Data
 * Author: Quang Chien
 * Creation Date: Mar 8, 2024 at 2:29:32 PM
 *********************************************/
 
Products = {"Door" , "Window"};
Factories = {"Factory 1" , "Factory 2" , "Factory 3" } ;

r = [ 3000 5000 ] ;
/*t = [ [ 1 0 3 ] [ 0 3 2 ] ] ;*/
t = [[1 0] [0 3] [3 2]];
c = [ 4 12 18 ] ;
 